49342629860873498735013,10,1,2,09,5,1,2,08,14,1,2,011,8,1,2,014,5,1,2,02,9,1,2,07,6,1,2,04,15,1,2,013,6,1,2,014,3,1,2,04,15,1,2,02,15,1,2,01,10,1,2,013,8,1,2,09,1,1,2,04,4,1,2,07,8,1,2,014,4,1,2,015,9,1,2,08,9,1,2,015,13,1,2,08,12,1,2,03,9,1,2,013,6,1,2,010,11,1,2,010,13,1,2,015,10,1,2,014,7,1,2,09,5,1,2,015,15,1,2,07,3,1,2,08,13,1,2,01,9,1,2,01,2,1,2,07,5,1,2,05,9,1,2,012,11,1,2,09,10,1,2,03,4,1,2,013,2,1,2,012,9,1,2,05,14,1,2,01,1,1,2,04,13,1,2,02,1,1,2,012,5,1,2,013,13,1,2,07,4,1,2,06,9,1,2,014,10,1,2,0